Mack/Bortfeldt(2008)
Bin-Packing-Problem
BP-RG/SBSBPP/SSSCSP
Testcase-ID	11
Problem-ID	58
no_item_types	15
no_items	1852
CONTAINER_DATA (l,w,h)	404	50	1
ITEMS_DATA:
Type	x	y	z	no_items
1	59	42	1	124
2	57	37	1	130
3	45	42	1	120
4	49	37	1	128
5	40	27	1	128
6	39	24	1	126
7	29	28	1	123
8	49	16	1	127
9	37	19	1	122
10	39	17	1	125
11	26	24	1	127
12	27	23	1	125
13	30	19	1	123
14	53	10	1	114
15	28	18	1	110
